benchmark/results/graph__10-1000-0.10-03_15/graph__10-1000-0.10-03_15_Quinton_Monolithic.lp
\ This file has been generated by DOcplex
\ ENCODING=ISO-8859-1
\Problem name: Quinton Monolithic

Maximize
 obj: tau
Subject To
 c1: tau - 0.000784313725 m_a0_proc_0 - 0.001639344262 m_a0_proc_1
     - 0.001173708920 m_a0_proc_2 <= 0
 c2: y_a0_proc_0 + y_a0_proc_1 + y_a0_proc_2 - tau = 0
 c3: m_a0_proc_0 + m_a0_proc_1 + m_a0_proc_2 = 1
 c4: y_a0_proc_0 - m_a0_proc_0 <= 0
 c5: y_a0_proc_0 >= 0
 c6: y_a0_proc_1 - m_a0_proc_1 <= 0
 c7: y_a0_proc_1 >= 0
 c8: y_a0_proc_2 - m_a0_proc_2 <= 0
 c9: y_a0_proc_2 >= 0
 c10: tau - 0.001245330012 m_a1_proc_0 - 0.000959692898 m_a1_proc_1
      - 0.000816326531 m_a1_proc_2 <= 0
 c11: y_a1_proc_0 + y_a1_proc_1 + y_a1_proc_2 - tau = 0
 c12: m_a1_proc_0 + m_a1_proc_1 + m_a1_proc_2 = 1
 c13: y_a1_proc_0 - m_a1_proc_0 <= 0
 c14: y_a1_proc_0 >= 0
 c15: y_a1_proc_1 - m_a1_proc_1 <= 0
 c16: y_a1_proc_1 >= 0
 c17: y_a1_proc_2 - m_a1_proc_2 <= 0
 c18: y_a1_proc_2 >= 0
 c19: tau - 0.001184834123 m_a2_proc_0 - 0.001848428835 m_a2_proc_1
      - 0.000956022945 m_a2_proc_2 <= 0
 c20: y_a2_proc_0 + y_a2_proc_1 + y_a2_proc_2 - tau = 0
 c21: m_a2_proc_0 + m_a2_proc_1 + m_a2_proc_2 = 1
 c22: y_a2_proc_0 - m_a2_proc_0 <= 0
 c23: y_a2_proc_0 >= 0
 c24: y_a2_proc_1 - m_a2_proc_1 <= 0
 c25: y_a2_proc_1 >= 0
 c26: y_a2_proc_2 - m_a2_proc_2 <= 0
 c27: y_a2_proc_2 >= 0
 c28: tau - 0.000890471950 m_a3_proc_0 - 0.001092896175 m_a3_proc_1
      - 0.001453488372 m_a3_proc_2 <= 0
 c29: y_a3_proc_0 + y_a3_proc_1 + y_a3_proc_2 - tau = 0
 c30: m_a3_proc_0 + m_a3_proc_1 + m_a3_proc_2 = 1
 c31: y_a3_proc_0 - m_a3_proc_0 <= 0
 c32: y_a3_proc_0 >= 0
 c33: y_a3_proc_1 - m_a3_proc_1 <= 0
 c34: y_a3_proc_1 >= 0
 c35: y_a3_proc_2 - m_a3_proc_2 <= 0
 c36: y_a3_proc_2 >= 0
 c37: tau - 0.001345895020 m_a4_proc_0 - 0.000978473581 m_a4_proc_1
      - 0.000797448166 m_a4_proc_2 <= 0
 c38: y_a4_proc_0 + y_a4_proc_1 + y_a4_proc_2 - tau = 0
 c39: m_a4_proc_0 + m_a4_proc_1 + m_a4_proc_2 = 1
 c40: y_a4_proc_0 - m_a4_proc_0 <= 0
 c41: y_a4_proc_0 >= 0
 c42: y_a4_proc_1 - m_a4_proc_1 <= 0
 c43: y_a4_proc_1 >= 0
 c44: y_a4_proc_2 - m_a4_proc_2 <= 0
 c45: y_a4_proc_2 >= 0
 c46: tau - 0.001046025105 m_a5_proc_0 - 0.001298701299 m_a5_proc_2 <= 0
 c47: y_a5_proc_0 + y_a5_proc_2 - tau = 0
 c48: m_a5_proc_0 + m_a5_proc_2 = 1
 c49: y_a5_proc_0 - m_a5_proc_0 <= 0
 c50: y_a5_proc_0 >= 0
 c51: y_a5_proc_2 - m_a5_proc_2 <= 0
 c52: y_a5_proc_2 >= 0
 c53: tau - 0.000870322019 m_a6_proc_0 - 0.001197604790 m_a6_proc_1
      - 0.000835421888 m_a6_proc_2 <= 0
 c54: y_a6_proc_0 + y_a6_proc_1 + y_a6_proc_2 - tau = 0
 c55: m_a6_proc_0 + m_a6_proc_1 + m_a6_proc_2 = 1
 c56: y_a6_proc_0 - m_a6_proc_0 <= 0
 c57: y_a6_proc_0 >= 0
 c58: y_a6_proc_1 - m_a6_proc_1 <= 0
 c59: y_a6_proc_1 >= 0
 c60: y_a6_proc_2 - m_a6_proc_2 <= 0
 c61: y_a6_proc_2 >= 0
 c62: tau - 0.002105263158 m_a7_proc_0 - 0.000950570342 m_a7_proc_1
      - 0.001216545012 m_a7_proc_2 <= 0
 c63: y_a7_proc_0 + y_a7_proc_1 + y_a7_proc_2 - tau = 0
 c64: m_a7_proc_0 + m_a7_proc_1 + m_a7_proc_2 = 1
 c65: y_a7_proc_0 - m_a7_proc_0 <= 0
 c66: y_a7_proc_0 >= 0
 c67: y_a7_proc_1 - m_a7_proc_1 <= 0
 c68: y_a7_proc_1 >= 0
 c69: y_a7_proc_2 - m_a7_proc_2 <= 0
 c70: y_a7_proc_2 >= 0
 c71: tau - 0.001014198783 m_a8_proc_0 - 0.001182033097 m_a8_proc_1
      - 0.001418439716 m_a8_proc_2 <= 0
 c72: y_a8_proc_0 + y_a8_proc_1 + y_a8_proc_2 - tau = 0
 c73: m_a8_proc_0 + m_a8_proc_1 + m_a8_proc_2 = 1
 c74: y_a8_proc_0 - m_a8_proc_0 <= 0
 c75: y_a8_proc_0 >= 0
 c76: y_a8_proc_1 - m_a8_proc_1 <= 0
 c77: y_a8_proc_1 >= 0
 c78: y_a8_proc_2 - m_a8_proc_2 <= 0
 c79: y_a8_proc_2 >= 0
 c80: tau - 0.000951474786 m_a9_proc_1 <= 0
 c81: y_a9_proc_1 - tau = 0
 c82: m_a9_proc_1 = 1
 c83: y_a9_proc_1 - m_a9_proc_1 <= 0
 c84: y_a9_proc_1 >= 0
 c85: u_a0 - u_a1 - 803 y_a1_proc_0 - 1042 y_a1_proc_1 - 1225 y_a1_proc_2 >= 0
 c86: u_a2 - u_a0 - 1275 y_a0_proc_0 - 610 y_a0_proc_1 - 852 y_a0_proc_2 >= -1
 c87: u_a3 - u_a2 - 844 y_a2_proc_0 - 541 y_a2_proc_1 - 1046 y_a2_proc_2 >= 0
 c88: u_a4 - u_a3 - 1123 y_a3_proc_0 - 915 y_a3_proc_1 - 688 y_a3_proc_2 >= 0
 c89: u_a2 - u_a5 - 956 y_a5_proc_0 - 770 y_a5_proc_2 >= 0
 c90: u_a1 - u_a6 - 1149 y_a6_proc_0 - 835 y_a6_proc_1 - 1197 y_a6_proc_2 >= -1
 c91: u_a7 - u_a6 - 1149 y_a6_proc_0 - 835 y_a6_proc_1 - 1197 y_a6_proc_2 >= -1
 c92: u_a8 - u_a6 - 1149 y_a6_proc_0 - 835 y_a6_proc_1 - 1197 y_a6_proc_2 >= -1
 c93: u_a9 - u_a1 - 803 y_a1_proc_0 - 1042 y_a1_proc_1 - 1225 y_a1_proc_2 >= 0
 c94: u_a5 - u_a2 - 844 y_a2_proc_0 - 541 y_a2_proc_1 - 1046 y_a2_proc_2 >= -1
 c95: u_a6 - u_a4 - 743 y_a4_proc_0 - 1022 y_a4_proc_1 - 1254 y_a4_proc_2 >= 0
 c96: u_a5 - u_a4 - 743 y_a4_proc_0 - 1022 y_a4_proc_1 - 1254 y_a4_proc_2 >= -1
 c97: u_a2 - u_a7 - 475 y_a7_proc_0 - 1052 y_a7_proc_1 - 822 y_a7_proc_2 >= 0
 c98: u_a7 - u_a3 - 1123 y_a3_proc_0 - 915 y_a3_proc_1 - 688 y_a3_proc_2 >= -1
 c99: - 1051 y_a9_proc_1 >= -1
 c100: u_a5 - u_a9 - 1051 y_a9_proc_1 >= -1
 c101: u_a6 - u_a8 - 986 y_a8_proc_0 - 846 y_a8_proc_1 - 705 y_a8_proc_2 >= 0
 c102: u_a1 + K_a0_a1 - 1275 m_a0_proc_2 - 1275 m_a1_proc_2 - u_a0
       - 852 y_a0_proc_2 >= -2550
 c103: u_a1 + K_a0_a1 - 1275 m_a0_proc_0 - 1275 m_a1_proc_0 - u_a0
       - 1275 y_a0_proc_0 >= -2550
 c104: u_a1 + K_a0_a1 - 1275 m_a0_proc_1 - 1275 m_a1_proc_1 - u_a0
       - 610 y_a0_proc_1 >= -2550
 c105: K_a0_a1 + K_a1_a0 = 1
 c106: u_a0 + K_a1_a0 - 1275 m_a0_proc_2 - 1275 m_a1_proc_2 - u_a1
       - 1225 y_a1_proc_2 >= -2550
 c107: u_a0 + K_a1_a0 - 1275 m_a0_proc_0 - 1275 m_a1_proc_0 - u_a1
       - 803 y_a1_proc_0 >= -2550
 c108: u_a0 + K_a1_a0 - 1275 m_a0_proc_1 - 1275 m_a1_proc_1 - u_a1
       - 1042 y_a1_proc_1 >= -2550
 c109: K_a0_a1 + K_a1_a0 = 1
 c110: u_a2 + K_a0_a2 - 1275 m_a0_proc_2 - 1275 m_a2_proc_2 - u_a0
       - 852 y_a0_proc_2 >= -2550
 c111: u_a2 + K_a0_a2 - 1275 m_a0_proc_0 - 1275 m_a2_proc_0 - u_a0
       - 1275 y_a0_proc_0 >= -2550
 c112: u_a2 + K_a0_a2 - 1275 m_a0_proc_1 - 1275 m_a2_proc_1 - u_a0
       - 610 y_a0_proc_1 >= -2550
 c113: K_a0_a2 + K_a2_a0 = 1
 c114: u_a0 + K_a2_a0 - 1275 m_a0_proc_2 - 1275 m_a2_proc_2 - u_a2
       - 1046 y_a2_proc_2 >= -2550
 c115: u_a0 + K_a2_a0 - 1275 m_a0_proc_0 - 1275 m_a2_proc_0 - u_a2
       - 844 y_a2_proc_0 >= -2550
 c116: u_a0 + K_a2_a0 - 1275 m_a0_proc_1 - 1275 m_a2_proc_1 - u_a2
       - 541 y_a2_proc_1 >= -2550
 c117: K_a0_a2 + K_a2_a0 = 1
 c118: u_a3 + K_a0_a3 - 1275 m_a0_proc_2 - 1275 m_a3_proc_2 - u_a0
       - 852 y_a0_proc_2 >= -2550
 c119: u_a3 + K_a0_a3 - 1275 m_a0_proc_0 - 1275 m_a3_proc_0 - u_a0
       - 1275 y_a0_proc_0 >= -2550
 c120: u_a3 + K_a0_a3 - 1275 m_a0_proc_1 - 1275 m_a3_proc_1 - u_a0
       - 610 y_a0_proc_1 >= -2550
 c121: K_a0_a3 + K_a3_a0 = 1
 c122: u_a0 + K_a3_a0 - 1275 m_a0_proc_2 - 1275 m_a3_proc_2 - u_a3
       - 688 y_a3_proc_2 >= -2550
 c123: u_a0 + K_a3_a0 - 1275 m_a0_proc_0 - 1275 m_a3_proc_0 - u_a3
       - 1123 y_a3_proc_0 >= -2550
 c124: u_a0 + K_a3_a0 - 1275 m_a0_proc_1 - 1275 m_a3_proc_1 - u_a3
       - 915 y_a3_proc_1 >= -2550
 c125: K_a0_a3 + K_a3_a0 = 1
 c126: u_a4 + K_a0_a4 - 1275 m_a0_proc_2 - 1275 m_a4_proc_2 - u_a0
       - 852 y_a0_proc_2 >= -2550
 c127: u_a4 + K_a0_a4 - 1275 m_a0_proc_0 - 1275 m_a4_proc_0 - u_a0
       - 1275 y_a0_proc_0 >= -2550
 c128: u_a4 + K_a0_a4 - 1275 m_a0_proc_1 - 1275 m_a4_proc_1 - u_a0
       - 610 y_a0_proc_1 >= -2550
 c129: K_a0_a4 + K_a4_a0 = 1
 c130: u_a0 + K_a4_a0 - 1275 m_a0_proc_2 - 1275 m_a4_proc_2 - u_a4
       - 1254 y_a4_proc_2 >= -2550
 c131: u_a0 + K_a4_a0 - 1275 m_a0_proc_0 - 1275 m_a4_proc_0 - u_a4
       - 743 y_a4_proc_0 >= -2550
 c132: u_a0 + K_a4_a0 - 1275 m_a0_proc_1 - 1275 m_a4_proc_1 - u_a4
       - 1022 y_a4_proc_1 >= -2550
 c133: K_a0_a4 + K_a4_a0 = 1
 c134: u_a5 + K_a0_a5 - 1275 m_a0_proc_2 - 1275 m_a5_proc_2 - u_a0
       - 852 y_a0_proc_2 >= -2550
 c135: u_a5 + K_a0_a5 - 1275 m_a0_proc_0 - 1275 m_a5_proc_0 - u_a0
       - 1275 y_a0_proc_0 >= -2550
 c136: K_a0_a5 + K_a5_a0 = 1
 c137: u_a0 + K_a5_a0 - 1275 m_a0_proc_2 - 1275 m_a5_proc_2 - u_a5
       - 770 y_a5_proc_2 >= -2550
 c138: u_a0 + K_a5_a0 - 1275 m_a0_proc_0 - 1275 m_a5_proc_0 - u_a5
       - 956 y_a5_proc_0 >= -2550
 c139: K_a0_a5 + K_a5_a0 = 1
 c140: u_a6 + K_a0_a6 - 1275 m_a0_proc_2 - 1275 m_a6_proc_2 - u_a0
       - 852 y_a0_proc_2 >= -2550
 c141: u_a6 + K_a0_a6 - 1275 m_a0_proc_0 - 1275 m_a6_proc_0 - u_a0
       - 1275 y_a0_proc_0 >= -2550
 c142: u_a6 + K_a0_a6 - 1275 m_a0_proc_1 - 1275 m_a6_proc_1 - u_a0
       - 610 y_a0_proc_1 >= -2550
 c143: K_a0_a6 + K_a6_a0 = 1
 c144: u_a0 + K_a6_a0 - 1275 m_a0_proc_2 - 1275 m_a6_proc_2 - u_a6
       - 1197 y_a6_proc_2 >= -2550
 c145: u_a0 + K_a6_a0 - 1275 m_a0_proc_0 - 1275 m_a6_proc_0 - u_a6
       - 1149 y_a6_proc_0 >= -2550
 c146: u_a0 + K_a6_a0 - 1275 m_a0_proc_1 - 1275 m_a6_proc_1 - u_a6
       - 835 y_a6_proc_1 >= -2550
 c147: K_a0_a6 + K_a6_a0 = 1
 c148: u_a7 + K_a0_a7 - 1275 m_a0_proc_2 - 1275 m_a7_proc_2 - u_a0
       - 852 y_a0_proc_2 >= -2550
 c149: u_a7 + K_a0_a7 - 1275 m_a0_proc_0 - 1275 m_a7_proc_0 - u_a0
       - 1275 y_a0_proc_0 >= -2550
 c150: u_a7 + K_a0_a7 - 1275 m_a0_proc_1 - 1275 m_a7_proc_1 - u_a0
       - 610 y_a0_proc_1 >= -2550
 c151: K_a0_a7 + K_a7_a0 = 1
 c152: u_a0 + K_a7_a0 - 1275 m_a0_proc_2 - 1275 m_a7_proc_2 - u_a7
       - 822 y_a7_proc_2 >= -2550
 c153: u_a0 + K_a7_a0 - 1275 m_a0_proc_0 - 1275 m_a7_proc_0 - u_a7
       - 475 y_a7_proc_0 >= -2550
 c154: u_a0 + K_a7_a0 - 1275 m_a0_proc_1 - 1275 m_a7_proc_1 - u_a7
       - 1052 y_a7_proc_1 >= -2550
 c155: K_a0_a7 + K_a7_a0 = 1
 c156: u_a8 + K_a0_a8 - 1275 m_a0_proc_2 - 1275 m_a8_proc_2 - u_a0
       - 852 y_a0_proc_2 >= -2550
 c157: u_a8 + K_a0_a8 - 1275 m_a0_proc_0 - 1275 m_a8_proc_0 - u_a0
       - 1275 y_a0_proc_0 >= -2550
 c158: u_a8 + K_a0_a8 - 1275 m_a0_proc_1 - 1275 m_a8_proc_1 - u_a0
       - 610 y_a0_proc_1 >= -2550
 c159: K_a0_a8 + K_a8_a0 = 1
 c160: u_a0 + K_a8_a0 - 1275 m_a0_proc_2 - 1275 m_a8_proc_2 - u_a8
       - 705 y_a8_proc_2 >= -2550
 c161: u_a0 + K_a8_a0 - 1275 m_a0_proc_0 - 1275 m_a8_proc_0 - u_a8
       - 986 y_a8_proc_0 >= -2550
 c162: u_a0 + K_a8_a0 - 1275 m_a0_proc_1 - 1275 m_a8_proc_1 - u_a8
       - 846 y_a8_proc_1 >= -2550
 c163: K_a0_a8 + K_a8_a0 = 1
 c164: u_a9 + K_a0_a9 - 1275 m_a0_proc_1 - 1275 m_a9_proc_1 - u_a0
       - 610 y_a0_proc_1 >= -2550
 c165: K_a0_a9 + K_a9_a0 = 1
 c166: u_a0 + K_a9_a0 - 1275 m_a0_proc_1 - 1275 m_a9_proc_1 - u_a9
       - 1051 y_a9_proc_1 >= -2550
 c167: K_a0_a9 + K_a9_a0 = 1
 c168: u_a2 + K_a1_a2 - 1275 m_a1_proc_2 - 1275 m_a2_proc_2 - u_a1
       - 1225 y_a1_proc_2 >= -2550
 c169: u_a2 + K_a1_a2 - 1275 m_a1_proc_0 - 1275 m_a2_proc_0 - u_a1
       - 803 y_a1_proc_0 >= -2550
 c170: u_a2 + K_a1_a2 - 1275 m_a1_proc_1 - 1275 m_a2_proc_1 - u_a1
       - 1042 y_a1_proc_1 >= -2550
 c171: K_a1_a2 + K_a2_a1 = 1
 c172: u_a1 + K_a2_a1 - 1275 m_a1_proc_2 - 1275 m_a2_proc_2 - u_a2
       - 1046 y_a2_proc_2 >= -2550
 c173: u_a1 + K_a2_a1 - 1275 m_a1_proc_0 - 1275 m_a2_proc_0 - u_a2
       - 844 y_a2_proc_0 >= -2550
 c174: u_a1 + K_a2_a1 - 1275 m_a1_proc_1 - 1275 m_a2_proc_1 - u_a2
       - 541 y_a2_proc_1 >= -2550
 c175: K_a1_a2 + K_a2_a1 = 1
 c176: u_a3 + K_a1_a3 - 1275 m_a1_proc_2 - 1275 m_a3_proc_2 - u_a1
       - 1225 y_a1_proc_2 >= -2550
 c177: u_a3 + K_a1_a3 - 1275 m_a1_proc_0 - 1275 m_a3_proc_0 - u_a1
       - 803 y_a1_proc_0 >= -2550
 c178: u_a3 + K_a1_a3 - 1275 m_a1_proc_1 - 1275 m_a3_proc_1 - u_a1
       - 1042 y_a1_proc_1 >= -2550
 c179: K_a1_a3 + K_a3_a1 = 1
 c180: u_a1 + K_a3_a1 - 1275 m_a1_proc_2 - 1275 m_a3_proc_2 - u_a3
       - 688 y_a3_proc_2 >= -2550
 c181: u_a1 + K_a3_a1 - 1275 m_a1_proc_0 - 1275 m_a3_proc_0 - u_a3
       - 1123 y_a3_proc_0 >= -2550
 c182: u_a1 + K_a3_a1 - 1275 m_a1_proc_1 - 1275 m_a3_proc_1 - u_a3
       - 915 y_a3_proc_1 >= -2550
 c183: K_a1_a3 + K_a3_a1 = 1
 c184: u_a4 + K_a1_a4 - 1275 m_a1_proc_2 - 1275 m_a4_proc_2 - u_a1
       - 1225 y_a1_proc_2 >= -2550
 c185: u_a4 + K_a1_a4 - 1275 m_a1_proc_0 - 1275 m_a4_proc_0 - u_a1
       - 803 y_a1_proc_0 >= -2550
 c186: u_a4 + K_a1_a4 - 1275 m_a1_proc_1 - 1275 m_a4_proc_1 - u_a1
       - 1042 y_a1_proc_1 >= -2550
 c187: K_a1_a4 + K_a4_a1 = 1
 c188: u_a1 + K_a4_a1 - 1275 m_a1_proc_2 - 1275 m_a4_proc_2 - u_a4
       - 1254 y_a4_proc_2 >= -2550
 c189: u_a1 + K_a4_a1 - 1275 m_a1_proc_0 - 1275 m_a4_proc_0 - u_a4
       - 743 y_a4_proc_0 >= -2550
 c190: u_a1 + K_a4_a1 - 1275 m_a1_proc_1 - 1275 m_a4_proc_1 - u_a4
       - 1022 y_a4_proc_1 >= -2550
 c191: K_a1_a4 + K_a4_a1 = 1
 c192: u_a5 + K_a1_a5 - 1275 m_a1_proc_2 - 1275 m_a5_proc_2 - u_a1
       - 1225 y_a1_proc_2 >= -2550
 c193: u_a5 + K_a1_a5 - 1275 m_a1_proc_0 - 1275 m_a5_proc_0 - u_a1
       - 803 y_a1_proc_0 >= -2550
 c194: K_a1_a5 + K_a5_a1 = 1
 c195: u_a1 + K_a5_a1 - 1275 m_a1_proc_2 - 1275 m_a5_proc_2 - u_a5
       - 770 y_a5_proc_2 >= -2550
 c196: u_a1 + K_a5_a1 - 1275 m_a1_proc_0 - 1275 m_a5_proc_0 - u_a5
       - 956 y_a5_proc_0 >= -2550
 c197: K_a1_a5 + K_a5_a1 = 1
 c198: u_a6 + K_a1_a6 - 1275 m_a1_proc_2 - 1275 m_a6_proc_2 - u_a1
       - 1225 y_a1_proc_2 >= -2550
 c199: u_a6 + K_a1_a6 - 1275 m_a1_proc_0 - 1275 m_a6_proc_0 - u_a1
       - 803 y_a1_proc_0 >= -2550
 c200: u_a6 + K_a1_a6 - 1275 m_a1_proc_1 - 1275 m_a6_proc_1 - u_a1
       - 1042 y_a1_proc_1 >= -2550
 c201: K_a1_a6 + K_a6_a1 = 1
 c202: u_a1 + K_a6_a1 - 1275 m_a1_proc_2 - 1275 m_a6_proc_2 - u_a6
       - 1197 y_a6_proc_2 >= -2550
 c203: u_a1 + K_a6_a1 - 1275 m_a1_proc_0 - 1275 m_a6_proc_0 - u_a6
       - 1149 y_a6_proc_0 >= -2550
 c204: u_a1 + K_a6_a1 - 1275 m_a1_proc_1 - 1275 m_a6_proc_1 - u_a6
       - 835 y_a6_proc_1 >= -2550
 c205: K_a1_a6 + K_a6_a1 = 1
 c206: u_a7 + K_a1_a7 - 1275 m_a1_proc_2 - 1275 m_a7_proc_2 - u_a1
       - 1225 y_a1_proc_2 >= -2550
 c207: u_a7 + K_a1_a7 - 1275 m_a1_proc_0 - 1275 m_a7_proc_0 - u_a1
       - 803 y_a1_proc_0 >= -2550
 c208: u_a7 + K_a1_a7 - 1275 m_a1_proc_1 - 1275 m_a7_proc_1 - u_a1
       - 1042 y_a1_proc_1 >= -2550
 c209: K_a1_a7 + K_a7_a1 = 1
 c210: u_a1 + K_a7_a1 - 1275 m_a1_proc_2 - 1275 m_a7_proc_2 - u_a7
       - 822 y_a7_proc_2 >= -2550
 c211: u_a1 + K_a7_a1 - 1275 m_a1_proc_0 - 1275 m_a7_proc_0 - u_a7
       - 475 y_a7_proc_0 >= -2550
 c212: u_a1 + K_a7_a1 - 1275 m_a1_proc_1 - 1275 m_a7_proc_1 - u_a7
       - 1052 y_a7_proc_1 >= -2550
 c213: K_a1_a7 + K_a7_a1 = 1
 c214: u_a8 + K_a1_a8 - 1275 m_a1_proc_2 - 1275 m_a8_proc_2 - u_a1
       - 1225 y_a1_proc_2 >= -2550
 c215: u_a8 + K_a1_a8 - 1275 m_a1_proc_0 - 1275 m_a8_proc_0 - u_a1
       - 803 y_a1_proc_0 >= -2550
 c216: u_a8 + K_a1_a8 - 1275 m_a1_proc_1 - 1275 m_a8_proc_1 - u_a1
       - 1042 y_a1_proc_1 >= -2550
 c217: K_a1_a8 + K_a8_a1 = 1
 c218: u_a1 + K_a8_a1 - 1275 m_a1_proc_2 - 1275 m_a8_proc_2 - u_a8
       - 705 y_a8_proc_2 >= -2550
 c219: u_a1 + K_a8_a1 - 1275 m_a1_proc_0 - 1275 m_a8_proc_0 - u_a8
       - 986 y_a8_proc_0 >= -2550
 c220: u_a1 + K_a8_a1 - 1275 m_a1_proc_1 - 1275 m_a8_proc_1 - u_a8
       - 846 y_a8_proc_1 >= -2550
 c221: K_a1_a8 + K_a8_a1 = 1
 c222: u_a9 + K_a1_a9 - 1275 m_a1_proc_1 - 1275 m_a9_proc_1 - u_a1
       - 1042 y_a1_proc_1 >= -2550
 c223: K_a1_a9 + K_a9_a1 = 1
 c224: u_a1 + K_a9_a1 - 1275 m_a1_proc_1 - 1275 m_a9_proc_1 - u_a9
       - 1051 y_a9_proc_1 >= -2550
 c225: K_a1_a9 + K_a9_a1 = 1
 c226: u_a3 + K_a2_a3 - 1275 m_a2_proc_2 - 1275 m_a3_proc_2 - u_a2
       - 1046 y_a2_proc_2 >= -2550
 c227: u_a3 + K_a2_a3 - 1275 m_a2_proc_0 - 1275 m_a3_proc_0 - u_a2
       - 844 y_a2_proc_0 >= -2550
 c228: u_a3 + K_a2_a3 - 1275 m_a2_proc_1 - 1275 m_a3_proc_1 - u_a2
       - 541 y_a2_proc_1 >= -2550
 c229: K_a2_a3 + K_a3_a2 = 1
 c230: u_a2 + K_a3_a2 - 1275 m_a2_proc_2 - 1275 m_a3_proc_2 - u_a3
       - 688 y_a3_proc_2 >= -2550
 c231: u_a2 + K_a3_a2 - 1275 m_a2_proc_0 - 1275 m_a3_proc_0 - u_a3
       - 1123 y_a3_proc_0 >= -2550
 c232: u_a2 + K_a3_a2 - 1275 m_a2_proc_1 - 1275 m_a3_proc_1 - u_a3
       - 915 y_a3_proc_1 >= -2550
 c233: K_a2_a3 + K_a3_a2 = 1
 c234: u_a4 + K_a2_a4 - 1275 m_a2_proc_2 - 1275 m_a4_proc_2 - u_a2
       - 1046 y_a2_proc_2 >= -2550
 c235: u_a4 + K_a2_a4 - 1275 m_a2_proc_0 - 1275 m_a4_proc_0 - u_a2
       - 844 y_a2_proc_0 >= -2550
 c236: u_a4 + K_a2_a4 - 1275 m_a2_proc_1 - 1275 m_a4_proc_1 - u_a2
       - 541 y_a2_proc_1 >= -2550
 c237: K_a2_a4 + K_a4_a2 = 1
 c238: u_a2 + K_a4_a2 - 1275 m_a2_proc_2 - 1275 m_a4_proc_2 - u_a4
       - 1254 y_a4_proc_2 >= -2550
 c239: u_a2 + K_a4_a2 - 1275 m_a2_proc_0 - 1275 m_a4_proc_0 - u_a4
       - 743 y_a4_proc_0 >= -2550
 c240: u_a2 + K_a4_a2 - 1275 m_a2_proc_1 - 1275 m_a4_proc_1 - u_a4
       - 1022 y_a4_proc_1 >= -2550
 c241: K_a2_a4 + K_a4_a2 = 1
 c242: u_a5 + K_a2_a5 - 1275 m_a2_proc_2 - 1275 m_a5_proc_2 - u_a2
       - 1046 y_a2_proc_2 >= -2550
 c243: u_a5 + K_a2_a5 - 1275 m_a2_proc_0 - 1275 m_a5_proc_0 - u_a2
       - 844 y_a2_proc_0 >= -2550
 c244: K_a2_a5 + K_a5_a2 = 1
 c245: u_a2 + K_a5_a2 - 1275 m_a2_proc_2 - 1275 m_a5_proc_2 - u_a5
       - 770 y_a5_proc_2 >= -2550
 c246: u_a2 + K_a5_a2 - 1275 m_a2_proc_0 - 1275 m_a5_proc_0 - u_a5
       - 956 y_a5_proc_0 >= -2550
 c247: K_a2_a5 + K_a5_a2 = 1
 c248: u_a6 + K_a2_a6 - 1275 m_a2_proc_2 - 1275 m_a6_proc_2 - u_a2
       - 1046 y_a2_proc_2 >= -2550
 c249: u_a6 + K_a2_a6 - 1275 m_a2_proc_0 - 1275 m_a6_proc_0 - u_a2
       - 844 y_a2_proc_0 >= -2550
 c250: u_a6 + K_a2_a6 - 1275 m_a2_proc_1 - 1275 m_a6_proc_1 - u_a2
       - 541 y_a2_proc_1 >= -2550
 c251: K_a2_a6 + K_a6_a2 = 1
 c252: u_a2 + K_a6_a2 - 1275 m_a2_proc_2 - 1275 m_a6_proc_2 - u_a6
       - 1197 y_a6_proc_2 >= -2550
 c253: u_a2 + K_a6_a2 - 1275 m_a2_proc_0 - 1275 m_a6_proc_0 - u_a6
       - 1149 y_a6_proc_0 >= -2550
 c254: u_a2 + K_a6_a2 - 1275 m_a2_proc_1 - 1275 m_a6_proc_1 - u_a6
       - 835 y_a6_proc_1 >= -2550
 c255: K_a2_a6 + K_a6_a2 = 1
 c256: u_a7 + K_a2_a7 - 1275 m_a2_proc_2 - 1275 m_a7_proc_2 - u_a2
       - 1046 y_a2_proc_2 >= -2550
 c257: u_a7 + K_a2_a7 - 1275 m_a2_proc_0 - 1275 m_a7_proc_0 - u_a2
       - 844 y_a2_proc_0 >= -2550
 c258: u_a7 + K_a2_a7 - 1275 m_a2_proc_1 - 1275 m_a7_proc_1 - u_a2
       - 541 y_a2_proc_1 >= -2550
 c259: K_a2_a7 + K_a7_a2 = 1
 c260: u_a2 + K_a7_a2 - 1275 m_a2_proc_2 - 1275 m_a7_proc_2 - u_a7
       - 822 y_a7_proc_2 >= -2550
 c261: u_a2 + K_a7_a2 - 1275 m_a2_proc_0 - 1275 m_a7_proc_0 - u_a7
       - 475 y_a7_proc_0 >= -2550
 c262: u_a2 + K_a7_a2 - 1275 m_a2_proc_1 - 1275 m_a7_proc_1 - u_a7
       - 1052 y_a7_proc_1 >= -2550
 c263: K_a2_a7 + K_a7_a2 = 1
 c264: u_a8 + K_a2_a8 - 1275 m_a2_proc_2 - 1275 m_a8_proc_2 - u_a2
       - 1046 y_a2_proc_2 >= -2550
 c265: u_a8 + K_a2_a8 - 1275 m_a2_proc_0 - 1275 m_a8_proc_0 - u_a2
       - 844 y_a2_proc_0 >= -2550
 c266: u_a8 + K_a2_a8 - 1275 m_a2_proc_1 - 1275 m_a8_proc_1 - u_a2
       - 541 y_a2_proc_1 >= -2550
 c267: K_a2_a8 + K_a8_a2 = 1
 c268: u_a2 + K_a8_a2 - 1275 m_a2_proc_2 - 1275 m_a8_proc_2 - u_a8
       - 705 y_a8_proc_2 >= -2550
 c269: u_a2 + K_a8_a2 - 1275 m_a2_proc_0 - 1275 m_a8_proc_0 - u_a8
       - 986 y_a8_proc_0 >= -2550
 c270: u_a2 + K_a8_a2 - 1275 m_a2_proc_1 - 1275 m_a8_proc_1 - u_a8
       - 846 y_a8_proc_1 >= -2550
 c271: K_a2_a8 + K_a8_a2 = 1
 c272: u_a9 + K_a2_a9 - 1275 m_a2_proc_1 - 1275 m_a9_proc_1 - u_a2
       - 541 y_a2_proc_1 >= -2550
 c273: K_a2_a9 + K_a9_a2 = 1
 c274: u_a2 + K_a9_a2 - 1275 m_a2_proc_1 - 1275 m_a9_proc_1 - u_a9
       - 1051 y_a9_proc_1 >= -2550
 c275: K_a2_a9 + K_a9_a2 = 1
 c276: u_a4 + K_a3_a4 - 1275 m_a3_proc_2 - 1275 m_a4_proc_2 - u_a3
       - 688 y_a3_proc_2 >= -2550
 c277: u_a4 + K_a3_a4 - 1275 m_a3_proc_0 - 1275 m_a4_proc_0 - u_a3
       - 1123 y_a3_proc_0 >= -2550
 c278: u_a4 + K_a3_a4 - 1275 m_a3_proc_1 - 1275 m_a4_proc_1 - u_a3
       - 915 y_a3_proc_1 >= -2550
 c279: K_a3_a4 + K_a4_a3 = 1
 c280: u_a3 + K_a4_a3 - 1275 m_a3_proc_2 - 1275 m_a4_proc_2 - u_a4
       - 1254 y_a4_proc_2 >= -2550
 c281: u_a3 + K_a4_a3 - 1275 m_a3_proc_0 - 1275 m_a4_proc_0 - u_a4
       - 743 y_a4_proc_0 >= -2550
 c282: u_a3 + K_a4_a3 - 1275 m_a3_proc_1 - 1275 m_a4_proc_1 - u_a4
       - 1022 y_a4_proc_1 >= -2550
 c283: K_a3_a4 + K_a4_a3 = 1
 c284: u_a5 + K_a3_a5 - 1275 m_a3_proc_2 - 1275 m_a5_proc_2 - u_a3
       - 688 y_a3_proc_2 >= -2550
 c285: u_a5 + K_a3_a5 - 1275 m_a3_proc_0 - 1275 m_a5_proc_0 - u_a3
       - 1123 y_a3_proc_0 >= -2550
 c286: K_a3_a5 + K_a5_a3 = 1
 c287: u_a3 + K_a5_a3 - 1275 m_a3_proc_2 - 1275 m_a5_proc_2 - u_a5
       - 770 y_a5_proc_2 >= -2550
 c288: u_a3 + K_a5_a3 - 1275 m_a3_proc_0 - 1275 m_a5_proc_0 - u_a5
       - 956 y_a5_proc_0 >= -2550
 c289: K_a3_a5 + K_a5_a3 = 1
 c290: u_a6 + K_a3_a6 - 1275 m_a3_proc_2 - 1275 m_a6_proc_2 - u_a3
       - 688 y_a3_proc_2 >= -2550
 c291: u_a6 + K_a3_a6 - 1275 m_a3_proc_0 - 1275 m_a6_proc_0 - u_a3
       - 1123 y_a3_proc_0 >= -2550
 c292: u_a6 + K_a3_a6 - 1275 m_a3_proc_1 - 1275 m_a6_proc_1 - u_a3
       - 915 y_a3_proc_1 >= -2550
 c293: K_a3_a6 + K_a6_a3 = 1
 c294: u_a3 + K_a6_a3 - 1275 m_a3_proc_2 - 1275 m_a6_proc_2 - u_a6
       - 1197 y_a6_proc_2 >= -2550
 c295: u_a3 + K_a6_a3 - 1275 m_a3_proc_0 - 1275 m_a6_proc_0 - u_a6
       - 1149 y_a6_proc_0 >= -2550
 c296: u_a3 + K_a6_a3 - 1275 m_a3_proc_1 - 1275 m_a6_proc_1 - u_a6
       - 835 y_a6_proc_1 >= -2550
 c297: K_a3_a6 + K_a6_a3 = 1
 c298: u_a7 + K_a3_a7 - 1275 m_a3_proc_2 - 1275 m_a7_proc_2 - u_a3
       - 688 y_a3_proc_2 >= -2550
 c299: u_a7 + K_a3_a7 - 1275 m_a3_proc_0 - 1275 m_a7_proc_0 - u_a3
       - 1123 y_a3_proc_0 >= -2550
 c300: u_a7 + K_a3_a7 - 1275 m_a3_proc_1 - 1275 m_a7_proc_1 - u_a3
       - 915 y_a3_proc_1 >= -2550
 c301: K_a3_a7 + K_a7_a3 = 1
 c302: u_a3 + K_a7_a3 - 1275 m_a3_proc_2 - 1275 m_a7_proc_2 - u_a7
       - 822 y_a7_proc_2 >= -2550
 c303: u_a3 + K_a7_a3 - 1275 m_a3_proc_0 - 1275 m_a7_proc_0 - u_a7
       - 475 y_a7_proc_0 >= -2550
 c304: u_a3 + K_a7_a3 - 1275 m_a3_proc_1 - 1275 m_a7_proc_1 - u_a7
       - 1052 y_a7_proc_1 >= -2550
 c305: K_a3_a7 + K_a7_a3 = 1
 c306: u_a8 + K_a3_a8 - 1275 m_a3_proc_2 - 1275 m_a8_proc_2 - u_a3
       - 688 y_a3_proc_2 >= -2550
 c307: u_a8 + K_a3_a8 - 1275 m_a3_proc_0 - 1275 m_a8_proc_0 - u_a3
       - 1123 y_a3_proc_0 >= -2550
 c308: u_a8 + K_a3_a8 - 1275 m_a3_proc_1 - 1275 m_a8_proc_1 - u_a3
       - 915 y_a3_proc_1 >= -2550
 c309: K_a3_a8 + K_a8_a3 = 1
 c310: u_a3 + K_a8_a3 - 1275 m_a3_proc_2 - 1275 m_a8_proc_2 - u_a8
       - 705 y_a8_proc_2 >= -2550
 c311: u_a3 + K_a8_a3 - 1275 m_a3_proc_0 - 1275 m_a8_proc_0 - u_a8
       - 986 y_a8_proc_0 >= -2550
 c312: u_a3 + K_a8_a3 - 1275 m_a3_proc_1 - 1275 m_a8_proc_1 - u_a8
       - 846 y_a8_proc_1 >= -2550
 c313: K_a3_a8 + K_a8_a3 = 1
 c314: u_a9 + K_a3_a9 - 1275 m_a3_proc_1 - 1275 m_a9_proc_1 - u_a3
       - 915 y_a3_proc_1 >= -2550
 c315: K_a3_a9 + K_a9_a3 = 1
 c316: u_a3 + K_a9_a3 - 1275 m_a3_proc_1 - 1275 m_a9_proc_1 - u_a9
       - 1051 y_a9_proc_1 >= -2550
 c317: K_a3_a9 + K_a9_a3 = 1
 c318: u_a5 + K_a4_a5 - 1275 m_a4_proc_2 - 1275 m_a5_proc_2 - u_a4
       - 1254 y_a4_proc_2 >= -2550
 c319: u_a5 + K_a4_a5 - 1275 m_a4_proc_0 - 1275 m_a5_proc_0 - u_a4
       - 743 y_a4_proc_0 >= -2550
 c320: K_a4_a5 + K_a5_a4 = 1
 c321: u_a4 + K_a5_a4 - 1275 m_a4_proc_2 - 1275 m_a5_proc_2 - u_a5
       - 770 y_a5_proc_2 >= -2550
 c322: u_a4 + K_a5_a4 - 1275 m_a4_proc_0 - 1275 m_a5_proc_0 - u_a5
       - 956 y_a5_proc_0 >= -2550
 c323: K_a4_a5 + K_a5_a4 = 1
 c324: u_a6 + K_a4_a6 - 1275 m_a4_proc_2 - 1275 m_a6_proc_2 - u_a4
       - 1254 y_a4_proc_2 >= -2550
 c325: u_a6 + K_a4_a6 - 1275 m_a4_proc_0 - 1275 m_a6_proc_0 - u_a4
       - 743 y_a4_proc_0 >= -2550
 c326: u_a6 + K_a4_a6 - 1275 m_a4_proc_1 - 1275 m_a6_proc_1 - u_a4
       - 1022 y_a4_proc_1 >= -2550
 c327: K_a4_a6 + K_a6_a4 = 1
 c328: u_a4 + K_a6_a4 - 1275 m_a4_proc_2 - 1275 m_a6_proc_2 - u_a6
       - 1197 y_a6_proc_2 >= -2550
 c329: u_a4 + K_a6_a4 - 1275 m_a4_proc_0 - 1275 m_a6_proc_0 - u_a6
       - 1149 y_a6_proc_0 >= -2550
 c330: u_a4 + K_a6_a4 - 1275 m_a4_proc_1 - 1275 m_a6_proc_1 - u_a6
       - 835 y_a6_proc_1 >= -2550
 c331: K_a4_a6 + K_a6_a4 = 1
 c332: u_a7 + K_a4_a7 - 1275 m_a4_proc_2 - 1275 m_a7_proc_2 - u_a4
       - 1254 y_a4_proc_2 >= -2550
 c333: u_a7 + K_a4_a7 - 1275 m_a4_proc_0 - 1275 m_a7_proc_0 - u_a4
       - 743 y_a4_proc_0 >= -2550
 c334: u_a7 + K_a4_a7 - 1275 m_a4_proc_1 - 1275 m_a7_proc_1 - u_a4
       - 1022 y_a4_proc_1 >= -2550
 c335: K_a4_a7 + K_a7_a4 = 1
 c336: u_a4 + K_a7_a4 - 1275 m_a4_proc_2 - 1275 m_a7_proc_2 - u_a7
       - 822 y_a7_proc_2 >= -2550
 c337: u_a4 + K_a7_a4 - 1275 m_a4_proc_0 - 1275 m_a7_proc_0 - u_a7
       - 475 y_a7_proc_0 >= -2550
 c338: u_a4 + K_a7_a4 - 1275 m_a4_proc_1 - 1275 m_a7_proc_1 - u_a7
       - 1052 y_a7_proc_1 >= -2550
 c339: K_a4_a7 + K_a7_a4 = 1
 c340: u_a8 + K_a4_a8 - 1275 m_a4_proc_2 - 1275 m_a8_proc_2 - u_a4
       - 1254 y_a4_proc_2 >= -2550
 c341: u_a8 + K_a4_a8 - 1275 m_a4_proc_0 - 1275 m_a8_proc_0 - u_a4
       - 743 y_a4_proc_0 >= -2550
 c342: u_a8 + K_a4_a8 - 1275 m_a4_proc_1 - 1275 m_a8_proc_1 - u_a4
       - 1022 y_a4_proc_1 >= -2550
 c343: K_a4_a8 + K_a8_a4 = 1
 c344: u_a4 + K_a8_a4 - 1275 m_a4_proc_2 - 1275 m_a8_proc_2 - u_a8
       - 705 y_a8_proc_2 >= -2550
 c345: u_a4 + K_a8_a4 - 1275 m_a4_proc_0 - 1275 m_a8_proc_0 - u_a8
       - 986 y_a8_proc_0 >= -2550
 c346: u_a4 + K_a8_a4 - 1275 m_a4_proc_1 - 1275 m_a8_proc_1 - u_a8
       - 846 y_a8_proc_1 >= -2550
 c347: K_a4_a8 + K_a8_a4 = 1
 c348: u_a9 + K_a4_a9 - 1275 m_a4_proc_1 - 1275 m_a9_proc_1 - u_a4
       - 1022 y_a4_proc_1 >= -2550
 c349: K_a4_a9 + K_a9_a4 = 1
 c350: u_a4 + K_a9_a4 - 1275 m_a4_proc_1 - 1275 m_a9_proc_1 - u_a9
       - 1051 y_a9_proc_1 >= -2550
 c351: K_a4_a9 + K_a9_a4 = 1
 c352: u_a6 + K_a5_a6 - 1275 m_a5_proc_2 - 1275 m_a6_proc_2 - u_a5
       - 770 y_a5_proc_2 >= -2550
 c353: u_a6 + K_a5_a6 - 1275 m_a5_proc_0 - 1275 m_a6_proc_0 - u_a5
       - 956 y_a5_proc_0 >= -2550
 c354: K_a5_a6 + K_a6_a5 = 1
 c355: u_a5 + K_a6_a5 - 1275 m_a5_proc_2 - 1275 m_a6_proc_2 - u_a6
       - 1197 y_a6_proc_2 >= -2550
 c356: u_a5 + K_a6_a5 - 1275 m_a5_proc_0 - 1275 m_a6_proc_0 - u_a6
       - 1149 y_a6_proc_0 >= -2550
 c357: K_a5_a6 + K_a6_a5 = 1
 c358: u_a7 + K_a5_a7 - 1275 m_a5_proc_2 - 1275 m_a7_proc_2 - u_a5
       - 770 y_a5_proc_2 >= -2550
 c359: u_a7 + K_a5_a7 - 1275 m_a5_proc_0 - 1275 m_a7_proc_0 - u_a5
       - 956 y_a5_proc_0 >= -2550
 c360: K_a5_a7 + K_a7_a5 = 1
 c361: u_a5 + K_a7_a5 - 1275 m_a5_proc_2 - 1275 m_a7_proc_2 - u_a7
       - 822 y_a7_proc_2 >= -2550
 c362: u_a5 + K_a7_a5 - 1275 m_a5_proc_0 - 1275 m_a7_proc_0 - u_a7
       - 475 y_a7_proc_0 >= -2550
 c363: K_a5_a7 + K_a7_a5 = 1
 c364: u_a8 + K_a5_a8 - 1275 m_a5_proc_2 - 1275 m_a8_proc_2 - u_a5
       - 770 y_a5_proc_2 >= -2550
 c365: u_a8 + K_a5_a8 - 1275 m_a5_proc_0 - 1275 m_a8_proc_0 - u_a5
       - 956 y_a5_proc_0 >= -2550
 c366: K_a5_a8 + K_a8_a5 = 1
 c367: u_a5 + K_a8_a5 - 1275 m_a5_proc_2 - 1275 m_a8_proc_2 - u_a8
       - 705 y_a8_proc_2 >= -2550
 c368: u_a5 + K_a8_a5 - 1275 m_a5_proc_0 - 1275 m_a8_proc_0 - u_a8
       - 986 y_a8_proc_0 >= -2550
 c369: K_a5_a8 + K_a8_a5 = 1
 c370: u_a7 + K_a6_a7 - 1275 m_a6_proc_2 - 1275 m_a7_proc_2 - u_a6
       - 1197 y_a6_proc_2 >= -2550
 c371: u_a7 + K_a6_a7 - 1275 m_a6_proc_0 - 1275 m_a7_proc_0 - u_a6
       - 1149 y_a6_proc_0 >= -2550
 c372: u_a7 + K_a6_a7 - 1275 m_a6_proc_1 - 1275 m_a7_proc_1 - u_a6
       - 835 y_a6_proc_1 >= -2550
 c373: K_a6_a7 + K_a7_a6 = 1
 c374: u_a6 + K_a7_a6 - 1275 m_a6_proc_2 - 1275 m_a7_proc_2 - u_a7
       - 822 y_a7_proc_2 >= -2550
 c375: u_a6 + K_a7_a6 - 1275 m_a6_proc_0 - 1275 m_a7_proc_0 - u_a7
       - 475 y_a7_proc_0 >= -2550
 c376: u_a6 + K_a7_a6 - 1275 m_a6_proc_1 - 1275 m_a7_proc_1 - u_a7
       - 1052 y_a7_proc_1 >= -2550
 c377: K_a6_a7 + K_a7_a6 = 1
 c378: u_a8 + K_a6_a8 - 1275 m_a6_proc_2 - 1275 m_a8_proc_2 - u_a6
       - 1197 y_a6_proc_2 >= -2550
 c379: u_a8 + K_a6_a8 - 1275 m_a6_proc_0 - 1275 m_a8_proc_0 - u_a6
       - 1149 y_a6_proc_0 >= -2550
 c380: u_a8 + K_a6_a8 - 1275 m_a6_proc_1 - 1275 m_a8_proc_1 - u_a6
       - 835 y_a6_proc_1 >= -2550
 c381: K_a6_a8 + K_a8_a6 = 1
 c382: u_a6 + K_a8_a6 - 1275 m_a6_proc_2 - 1275 m_a8_proc_2 - u_a8
       - 705 y_a8_proc_2 >= -2550
 c383: u_a6 + K_a8_a6 - 1275 m_a6_proc_0 - 1275 m_a8_proc_0 - u_a8
       - 986 y_a8_proc_0 >= -2550
 c384: u_a6 + K_a8_a6 - 1275 m_a6_proc_1 - 1275 m_a8_proc_1 - u_a8
       - 846 y_a8_proc_1 >= -2550
 c385: K_a6_a8 + K_a8_a6 = 1
 c386: u_a9 + K_a6_a9 - 1275 m_a6_proc_1 - 1275 m_a9_proc_1 - u_a6
       - 835 y_a6_proc_1 >= -2550
 c387: K_a6_a9 + K_a9_a6 = 1
 c388: u_a6 + K_a9_a6 - 1275 m_a6_proc_1 - 1275 m_a9_proc_1 - u_a9
       - 1051 y_a9_proc_1 >= -2550
 c389: K_a6_a9 + K_a9_a6 = 1
 c390: u_a8 + K_a7_a8 - 1275 m_a7_proc_2 - 1275 m_a8_proc_2 - u_a7
       - 822 y_a7_proc_2 >= -2550
 c391: u_a8 + K_a7_a8 - 1275 m_a7_proc_0 - 1275 m_a8_proc_0 - u_a7
       - 475 y_a7_proc_0 >= -2550
 c392: u_a8 + K_a7_a8 - 1275 m_a7_proc_1 - 1275 m_a8_proc_1 - u_a7
       - 1052 y_a7_proc_1 >= -2550
 c393: K_a7_a8 + K_a8_a7 = 1
 c394: u_a7 + K_a8_a7 - 1275 m_a7_proc_2 - 1275 m_a8_proc_2 - u_a8
       - 705 y_a8_proc_2 >= -2550
 c395: u_a7 + K_a8_a7 - 1275 m_a7_proc_0 - 1275 m_a8_proc_0 - u_a8
       - 986 y_a8_proc_0 >= -2550
 c396: u_a7 + K_a8_a7 - 1275 m_a7_proc_1 - 1275 m_a8_proc_1 - u_a8
       - 846 y_a8_proc_1 >= -2550
 c397: K_a7_a8 + K_a8_a7 = 1
 c398: u_a9 + K_a7_a9 - 1275 m_a7_proc_1 - 1275 m_a9_proc_1 - u_a7
       - 1052 y_a7_proc_1 >= -2550
 c399: K_a7_a9 + K_a9_a7 = 1
 c400: u_a7 + K_a9_a7 - 1275 m_a7_proc_1 - 1275 m_a9_proc_1 - u_a9
       - 1051 y_a9_proc_1 >= -2550
 c401: K_a7_a9 + K_a9_a7 = 1
 c402: u_a9 + K_a8_a9 - 1275 m_a8_proc_1 - 1275 m_a9_proc_1 - u_a8
       - 846 y_a8_proc_1 >= -2550
 c403: K_a8_a9 + K_a9_a8 = 1
 c404: u_a8 + K_a9_a8 - 1275 m_a8_proc_1 - 1275 m_a9_proc_1 - u_a9
       - 1051 y_a9_proc_1 >= -2550
 c405: K_a8_a9 + K_a9_a8 = 1

Bounds
       K_a0_a1 Free
       K_a0_a2 Free
       K_a0_a3 Free
       K_a0_a4 Free
       K_a0_a5 Free
       K_a0_a6 Free
       K_a0_a7 Free
       K_a0_a8 Free
       K_a0_a9 Free
       K_a1_a0 Free
       K_a1_a2 Free
       K_a1_a3 Free
       K_a1_a4 Free
       K_a1_a5 Free
       K_a1_a6 Free
       K_a1_a7 Free
       K_a1_a8 Free
       K_a1_a9 Free
       K_a2_a0 Free
       K_a2_a1 Free
       K_a2_a3 Free
       K_a2_a4 Free
       K_a2_a5 Free
       K_a2_a6 Free
       K_a2_a7 Free
       K_a2_a8 Free
       K_a2_a9 Free
       K_a3_a0 Free
       K_a3_a1 Free
       K_a3_a2 Free
       K_a3_a4 Free
       K_a3_a5 Free
       K_a3_a6 Free
       K_a3_a7 Free
       K_a3_a8 Free
       K_a3_a9 Free
       K_a4_a0 Free
       K_a4_a1 Free
       K_a4_a2 Free
       K_a4_a3 Free
       K_a4_a5 Free
       K_a4_a6 Free
       K_a4_a7 Free
       K_a4_a8 Free
       K_a4_a9 Free
       K_a5_a0 Free
       K_a5_a1 Free
       K_a5_a2 Free
       K_a5_a3 Free
       K_a5_a4 Free
       K_a5_a6 Free
       K_a5_a7 Free
       K_a5_a8 Free
       K_a5_a9 Free
       K_a6_a0 Free
       K_a6_a1 Free
       K_a6_a2 Free
       K_a6_a3 Free
       K_a6_a4 Free
       K_a6_a5 Free
       K_a6_a7 Free
       K_a6_a8 Free
       K_a6_a9 Free
       K_a7_a0 Free
       K_a7_a1 Free
       K_a7_a2 Free
       K_a7_a3 Free
       K_a7_a4 Free
       K_a7_a5 Free
       K_a7_a6 Free
       K_a7_a8 Free
       K_a7_a9 Free
       K_a8_a0 Free
       K_a8_a1 Free
       K_a8_a2 Free
       K_a8_a3 Free
       K_a8_a4 Free
       K_a8_a5 Free
       K_a8_a6 Free
       K_a8_a7 Free
       K_a8_a9 Free
       K_a9_a0 Free
       K_a9_a1 Free
       K_a9_a2 Free
       K_a9_a3 Free
       K_a9_a4 Free
       K_a9_a5 Free
       K_a9_a6 Free
       K_a9_a7 Free
       K_a9_a8 Free
 0 <= m_a0_proc_0 <= 1
 0 <= m_a0_proc_1 <= 1
 0 <= m_a0_proc_2 <= 1
 0 <= m_a1_proc_0 <= 1
 0 <= m_a1_proc_1 <= 1
 0 <= m_a1_proc_2 <= 1
 0 <= m_a2_proc_0 <= 1
 0 <= m_a2_proc_1 <= 1
 0 <= m_a2_proc_2 <= 1
 0 <= m_a3_proc_0 <= 1
 0 <= m_a3_proc_1 <= 1
 0 <= m_a3_proc_2 <= 1
 0 <= m_a4_proc_0 <= 1
 0 <= m_a4_proc_1 <= 1
 0 <= m_a4_proc_2 <= 1
 0 <= m_a5_proc_0 <= 1
 0 <= m_a5_proc_2 <= 1
 0 <= m_a6_proc_0 <= 1
 0 <= m_a6_proc_1 <= 1
 0 <= m_a6_proc_2 <= 1
 0 <= m_a7_proc_0 <= 1
 0 <= m_a7_proc_1 <= 1
 0 <= m_a7_proc_2 <= 1
 0 <= m_a8_proc_0 <= 1
 0 <= m_a8_proc_1 <= 1
 0 <= m_a8_proc_2 <= 1
 0 <= m_a9_proc_1 <= 1

Binaries
 m_a0_proc_0 m_a0_proc_1 m_a0_proc_2 m_a1_proc_0 m_a1_proc_1 m_a1_proc_2
 m_a2_proc_0 m_a2_proc_1 m_a2_proc_2 m_a3_proc_0 m_a3_proc_1 m_a3_proc_2
 m_a4_proc_0 m_a4_proc_1 m_a4_proc_2 m_a5_proc_0 m_a5_proc_2 m_a6_proc_0
 m_a6_proc_1 m_a6_proc_2 m_a7_proc_0 m_a7_proc_1 m_a7_proc_2 m_a8_proc_0
 m_a8_proc_1 m_a8_proc_2 m_a9_proc_1

Generals
 K_a0_a1 K_a0_a2 K_a0_a3 K_a0_a4 K_a0_a5 K_a0_a6 K_a0_a7 K_a0_a8 K_a0_a9 K_a1_a0
 K_a1_a2 K_a1_a3 K_a1_a4 K_a1_a5 K_a1_a6 K_a1_a7 K_a1_a8 K_a1_a9 K_a2_a0 K_a2_a1
 K_a2_a3 K_a2_a4 K_a2_a5 K_a2_a6 K_a2_a7 K_a2_a8 K_a2_a9 K_a3_a0 K_a3_a1 K_a3_a2
 K_a3_a4 K_a3_a5 K_a3_a6 K_a3_a7 K_a3_a8 K_a3_a9 K_a4_a0 K_a4_a1 K_a4_a2 K_a4_a3
 K_a4_a5 K_a4_a6 K_a4_a7 K_a4_a8 K_a4_a9 K_a5_a0 K_a5_a1 K_a5_a2 K_a5_a3 K_a5_a4
 K_a5_a6 K_a5_a7 K_a5_a8 K_a5_a9 K_a6_a0 K_a6_a1 K_a6_a2 K_a6_a3 K_a6_a4 K_a6_a5
 K_a6_a7 K_a6_a8 K_a6_a9 K_a7_a0 K_a7_a1 K_a7_a2 K_a7_a3 K_a7_a4 K_a7_a5 K_a7_a6
 K_a7_a8 K_a7_a9 K_a8_a0 K_a8_a1 K_a8_a2 K_a8_a3 K_a8_a4 K_a8_a5 K_a8_a6 K_a8_a7
 K_a8_a9 K_a9_a0 K_a9_a1 K_a9_a2 K_a9_a3 K_a9_a4 K_a9_a5 K_a9_a6 K_a9_a7 K_a9_a8
End
