benchmark/results/graph__10-1000-0.10-03_15/graph__10-1000-0.10-03_15_Quinton_Monolithic.txt
solution for: Quinton Monolithic
objective: 0.000304692
status: OPTIMAL_SOLUTION(2)
u_a0=0.740
u_a1=0.366
u_a2=0.366
u_a3=0.531
u_a4=0.740
u_a6=0.967
u_a7=0.221
u_a8=0.235
u_a9=0.611
tau=0.000
K_a0_a1=1276
K_a0_a2=1276
K_a0_a3=1
K_a0_a4=-1274
K_a0_a5=1
K_a0_a6=1
K_a0_a7=1276
K_a0_a8=1
K_a0_a9=-1274
K_a1_a0=-1275
K_a1_a2=1275
K_a1_a3=1
K_a1_a5=1
K_a1_a6=1
K_a1_a7=1
K_a1_a8=1275
K_a1_a9=-1275
K_a2_a0=-1275
K_a2_a1=-1274
K_a2_a3=1
K_a2_a4=1
K_a2_a5=1
K_a2_a7=1
K_a2_a8=1275
K_a3_a4=1
K_a3_a5=1
K_a3_a6=1
K_a3_a7=1
K_a3_a8=1
K_a3_a9=-1275
K_a4_a0=1275
K_a4_a1=1
K_a4_a5=1
K_a4_a6=1275
K_a4_a7=1
K_a4_a8=1
K_a4_a9=-1274
K_a5_a6=1
K_a5_a7=1
K_a6_a2=1
K_a6_a4=-1274
K_a6_a7=1
K_a6_a8=1
K_a6_a9=1
K_a7_a0=-1275
K_a7_a8=1275
K_a7_a9=-1275
K_a8_a1=-1274
K_a8_a2=-1274
K_a8_a5=1
K_a8_a7=-1274
K_a8_a9=-1275
K_a9_a0=1275
K_a9_a1=1276
K_a9_a2=1
K_a9_a3=1276
K_a9_a4=1275
K_a9_a7=1276
K_a9_a8=1276
m_a0_proc_2=1
m_a1_proc_0=1
m_a2_proc_1=1
m_a3_proc_2=1
m_a4_proc_0=1
m_a5_proc_2=1
m_a6_proc_1=1
m_a7_proc_0=1
m_a8_proc_2=1
m_a9_proc_1=1
y_a0_proc_2=0.000
y_a1_proc_0=0.000
y_a2_proc_1=0.000
y_a3_proc_2=0.000
y_a4_proc_0=0.000
y_a5_proc_2=0.000
y_a6_proc_1=0.000
y_a7_proc_0=0.000
y_a8_proc_2=0.000
y_a9_proc_1=0.000
